mixintcount/benchmarks/random_v2l/5_5_79.in
20 7
#	x1	x2	x3	x4	x5;		0 = Real; 1 = Integer
	1	1	1	1	1
1	8	-9	10	8	-10	-2
1	3	8	10	8	3	49
1	0	-9	-9	-8	10	-38
1	8	7	-5	10	-5	10
1	9	1	3	9	1	17
1	-1	-4	8	-3	-9	37
1	5	4	3	2	2	8
1	-10	-9	-5	10	-9	-43
1	-1	9	-9	2	8	63
1	-9	4	5	4	3	57
1	1	0	0	0	0	79
1	-1	0	0	0	0	79
1	0	1	0	0	0	79
1	0	-1	0	0	0	79
1	0	0	1	0	0	79
1	0	0	-1	0	0	79
1	0	0	0	1	0	79
1	0	0	0	-1	0	79
1	0	0	0	0	1	79
1	0	0	0	0	-1	79
